Optimal - objective value 0.56006602
      0 C0000000            1.92                       0
      1 C0000001            1.92             -0.99997584
      2 C0000002               1                       0
      3 C0000003            1.08         -2.4156189e-005
      4 C0000004           -1.08                       0
      5 C0000005            1.72                       0
      6 C0000006            1.72                      -1
      7 C0000007               1                       0
      8 C0000008      0.40993398                       0
      9 C0000009     -0.40993398                       0
     10 C0000010               1                       0
     11 C0000011             1.8          -0.00018230957
     12 C0000012            -1.8                       0
     13 C0000013               1                       0
     14 C0000014            0.74          -0.00011768346
     15 C0000015           -0.74                       0
     16 C0000016               1                       0
     17 C0000017            0.71          -0.00010772821
     18 C0000018           -0.71                       0
     19 C0000019               1                       0
     20 C0000020            1.36          -0.00014832158
     21 C0000021           -1.36                       0
     22 C0000022               3                       0
     23 C0000023               3             -0.99979547
     24 C0000024               1                       0
     25 C0000025            1.25          -0.00020453088
     26 C0000026           -1.25                       0
     27 C0000027               1                       0
     28 C0000028            1.71          -0.00020453088
     29 C0000029           -1.71                       0
     30 C0000030               1                       0
     31 C0000031            1.75          -0.00021400359
     32 C0000032           -1.75                       0
     33 C0000033               1                       0
     34 C0000034            1.95           -0.0001950585
     35 C0000035           -1.95                       0
     36 C0000036               1                       0
     37 C0000037  8.8817842e-016          -0.00026340001
     38 C0000038 -8.8817842e-016                       0
     39 C0000039               1                       0
     40 C0000040  8.8817842e-016          -0.00026969574
     41 C0000041 -8.8817842e-016                       0
     42 C0000042               0                       0
     43 C0000043               0             -0.99966486
     44 C0000044               1                       0
     45 C0000045            2.65          -0.00033513863
     46 C0000046           -2.65                       0
     47 C0000047               1                       0
     48 C0000048            1.94           -0.0002590611
     49 C0000049           -1.94                       0
     50 C0000050            2.15                       0
     51 C0000051            2.15             -0.99975217
     52 C0000052               1                       0
     53 C0000053            3.17          -0.00024783251
     54 C0000054           -3.17                       0
     55 C0000055            1.55                       0
     56 C0000056            1.55             -0.99974498
     57 C0000057               1                       0
     58 C0000058               1          -0.00025502322
     59 C0000059              -1                       0
     60 C0000060               1                       0
     61 C0000061  8.8817842e-016          -0.00025329275
     62 C0000062 -8.8817842e-016                       0
     63 C0000063               4                       0
     64 C0000064               4             -0.99974749
     65 C0000065               1                       0
     66 C0000066            3.33          -0.00025251257
     67 C0000067           -3.33                       0
     68 C0000068               1                       0
     69 C0000069            1.81          -0.00026376982
     70 C0000070           -1.81                       0
     71 C0000071               1                       0
     72 C0000072            1.28          -0.00027876398
     73 C0000073           -1.28                       0
     74 C0000074               4                       0
     75 C0000075               4             -0.99974889
     76 C0000076               1                       0
     77 C0000077 -1.0658141e-014          -0.00025110805
     78 C0000078  1.0658141e-014                       0
     79 C0000079               3                       0
     80 C0000080               3             -0.99974804
     81 C0000081               1                       0
     82 C0000082               0          -0.00025196363
     83 C0000083               0                       0
     84 C0000084             6.6                       0
     85 C0000085             6.6             -0.99971306
     86 C0000086               1                       0
     87 C0000087 -1.7763568e-015          -0.00028694261
     88 C0000088  1.7763568e-015                       0
     89 C0000089               1                       0
     90 C0000090  8.8817842e-016          -0.00022279097
     91 C0000091 -8.8817842e-016                       0
     92 C0000092     -0.60271457                       0
     93 C0000093      0.60271457                       0
     94 C0000094     -0.60271457                       0
     95 C0000095      0.60271457                       0
     96 C0000096     -0.60271457                       0
     97 C0000097      0.60271457                       0
     98 C0000098     -0.60271457                       0
     99 C0000099      0.60271457                       0
    100 C0000100     -0.60271457                       0
    101 C0000101      0.60271457                       0
    102 C0000102     -0.60271457                       0
    103 C0000103      0.60271457                       0
    104 C0000104     -0.60271457                       0
    105 C0000105      0.60271457                       0
    106 C0000106     -0.60271457                       0
    107 C0000107      0.60271457                       0
    108 C0000108     -0.60271457                       0
    109 C0000109      0.60271457                       0
    110 C0000110     -0.60271457                       0
    111 C0000111      0.60271457                       0
    112 C0000112     -0.60271457                       0
    113 C0000113      0.60271457                       0
    114 C0000114     -0.60271457                       0
    115 C0000115      0.60271457                       0
    116 C0000116     -0.60271457                       0
    117 C0000117      0.60271457                       0
    118 C0000118     -0.60271457                       0
    119 C0000119      0.60271457                       0
    120 C0000120     -0.60271457                       0
    121 C0000121      0.60271457                       0
    122 C0000122     -0.60271457                       0
    123 C0000123      0.60271457                       0
    124 C0000124     -0.60271457                       0
    125 C0000125      0.60271457                       0
    126 C0000126     -0.60271457                       0
    127 C0000127      0.60271457                       0
    128 C0000128     -0.60271457                       0
    129 C0000129      0.60271457                       0
    130 C0000130     -0.60271457                       0
    131 C0000131      0.60271457                       0
    132 C0000132     -0.60271457                       0
    133 C0000133      0.60271457                       0
    134 C0000134     -0.60271457                       0
    135 C0000135      0.60271457                       0
    136 C0000136     -0.60271457                       0
    137 C0000137      0.60271457                       0
    138 C0000138     -0.60271457                       0
    139 C0000139      0.60271457                       0
    140 C0000140     -0.60271457                       0
    141 C0000141      0.60271457                       0
    142 C0000142     -0.60271457                       0
    143 C0000143      0.60271457                       0
    144 C0000144     -0.60271457                       0
    145 C0000145      0.60271457                       0
    146 C0000146     -0.60271457                       0
    147 C0000147      0.60271457                       0
    148 C0000148     -0.60271457                       0
    149 C0000149      0.60271457                       0
    150 C0000150     -0.60271457                       0
    151 C0000151      0.60271457                       0
    152 C0000152     -0.60271457                       0
    153 C0000153      0.60271457                       0
    154 C0000154     -0.60271457                       0
    155 C0000155      0.60271457                       0
    156 C0000156     -0.60271457                       0
    157 C0000157      0.60271457                       0
    158 C0000158     -0.60271457                       0
    159 C0000159      0.60271457                       0
    160 C0000160     -0.60271457                       0
    161 C0000161      0.60271457                       0
    162 C0000162     -0.60271457                       0
    163 C0000163      0.60271457                       0
    164 C0000164     -0.60271457                       0
    165 C0000165      0.60271457                       0
    166 C0000166     -0.60271457                       0
    167 C0000167      0.60271457                       0
      0 X0000000            1.92         -1.2142387e-016
      1 X0000001            1.72                       0
      2 X0000002               0         -4.1199683e-017
      3 X0000003            2.15          4.2934406e-017
      4 X0000004            1.55          1.0213184e-016
      5 X0000005               4         -5.2204335e-017
      6 X0000006               4          5.5782202e-017
      7 X0000007               3          9.1723504e-017
      8 X0000008             6.6          4.0494951e-017
      9 X0000009               3         -1.0375815e-016
     10 X0000010               1                    1.08
     11 X0000011               1                    0.97
     12 X0000012               1                       0
     13 X0000013               1                       0
     14 X0000014               1                    2.65
     15 X0000015               1                    1.94
     16 X0000016               1                    3.17
     17 X0000017               1                       1
     18 X0000018               1                       0
     19 X0000019               1                    3.33
     20 X0000020               1                    1.81
     21 X0000021               1                    1.28
     22 X0000022               1                     1.8
     23 X0000023               1                       0
     24 X0000024               1                       0
     25 X0000025               1                       0
     26 X0000026               1                       0
     27 X0000027               1                    0.74
     28 X0000028               1                    0.71
     29 X0000029               1                    1.36
     30 X0000030               1                    1.25
     31 X0000031               1                    1.71
     32 X0000032               1                    1.75
     33 X0000033               1                    1.95
     34 X0000034     0.020460214          2.1684043e-019
     35 X0000035     0.019191093          2.1684043e-019
     36 X0000036    0.0059238872          1.7347235e-018
     37 X0000037   -0.0054505348         -8.6736174e-019
     38 X0000038    -0.069956058          8.6736174e-019
     39 X0000039     -0.22646457         -1.3010426e-017
     40 X0000040      -0.2160376                       0
     41 X0000041     -0.32165651         -4.3368087e-019
     42 X0000042     -0.35673516                       0
     43 X0000043     -0.18195691          2.6020852e-018
     44 X0000044     -0.19520885                       0
     45 X0000045     0.040971184         -2.1684043e-018
     46 X0000046     -0.40247502          4.7704896e-018
     47 X0000047       -0.494552         -1.7347235e-018
     48 X0000048     -0.23008519          -3.469447e-018
     49 X0000049     -0.12425606         -1.2143064e-017
     50 X0000050     0.090804006                       0
     51 X0000051     0.090949045          4.3368087e-019
     52 X0000052      0.14465925          4.3368087e-019
     53 X0000053    -0.023455135         -4.3368087e-019
     54 X0000054     0.083994865                       0
     55 X0000055     0.072678943          1.7347235e-018
     56 X0000056      0.10191479                       0
